Route #1: 72 75 22 54 4 
Route #2: 5 83 61 85 84 96 
Route #3: 45 82 7 18 
Route #4: 40 53 26 
Route #5: 59 14 44 38 43 13 
Route #6: 62 11 90 66 32 70 
Route #7: 69 30 51 9 20 1 
Route #8: 36 47 19 8 46 60 89 
Route #9: 39 23 67 55 25 
Route #10: 65 71 81 3 68 24 80 
Route #11: 95 98 16 86 17 
Route #12: 2 21 73 41 56 74 58 
Route #13: 27 31 88 10 
Route #14: 52 99 6 94 
Route #15: 63 64 49 48 
Route #16: 28 12 76 50 
Route #17: 92 42 15 87 57 97 37 91 100 93 
Route #18: 33 29 79 78 34 35 77 
Objective: 332066.3
